
n_res = 4;
rcap = [31, 34, 261, 267];
rtype = [1, 1, 2, 2];
n_tasks = 50;
modes =  [{1, 2, 3}, {4, 5, 6}, {7, 8, 9}, {10, 11, 12}, {13, 14, 15}, {16, 17, 18}, {19, 20, 21}, {22, 23, 24}, {25, 26, 27}, {28, 29, 30}, {31, 32, 33}, {34, 35, 36}, {37, 38, 39}, {40, 41, 42}, {43, 44, 45}, {46, 47, 48}, {49, 50, 51}, {52, 53, 54}, {55, 56, 57}, {58, 59, 60}, {61, 62, 63}, {64, 65, 66}, {67, 68, 69}, {70, 71, 72}, {73, 74, 75}, {76, 77, 78}, {79, 80, 81}, {82, 83, 84}, {85, 86, 87}, {88, 89, 90}, {91, 92, 93}, {94, 95, 96}, {97, 98, 99}, {100, 101, 102}, {103, 104, 105}, {106, 107, 108}, {109, 110, 111}, {112, 113, 114}, {115, 116, 117}, {118, 119, 120}, {121, 122, 123}, {124, 125, 126}, {127, 128, 129}, {130, 131, 132}, {133, 134, 135}, {136, 137, 138}, {139, 140, 141}, {142, 143, 144}, {145, 146, 147}, {148, 149, 150}];
succ =  [{7, 6, 5, 4}, {12, 9, 5, 4}, {17, 10, 9}, {24, 19, 17, 16, 11}, {24, 13, 10}, {19, 16, 9}, {24, 19, 16, 13, 12}, {24, 18, 17, 13, 12}, {24, 20, 18, 14, 13}, {19, 16, 14}, {20, 14, 13}, {25, 22, 20, 15}, {25, 22, 15}, {25, 22, 15}, {30, 27, 26, 23, 21}, {20, 18}, {30, 27, 26, 23}, {27, 26, 22}, {29, 26, 22}, {34, 30, 29, 26}, {32, 31, 29, 28}, {36, 35, 34, 33, 31, 30}, {36, 35, 32, 29}, {26}, {40, 36, 35, 31, 30}, {39, 33, 28}, {34, 28}, {40, 38, 37, 36, 35}, {44, 38, 33}, {49, 44, 42, 41, 39, 38}, {44, 42, 41, 39, 37}, {50, 44, 41, 39, 37}, {42, 40, 37}, {47, 44, 42, 37}, {49, 46, 43, 42, 41}, {49, 48, 47, 44, 43}, {49, 48, 46, 43}, {48, 47, 46, 43}, {47, 46, 43}, {49, 41}, {48, 47}, {50, 45}, {45}, {46}, {}, {}, {}, {}, {}, {}];
n_opt = 150;
dur = [2, 3, 9, 4, 9, 10, 2, 4, 7, 2, 9, 10, 7, 8, 9, 3, 6, 9, 4, 6, 7, 1, 7, 8, 3, 8, 9, 4, 8, 9, 7, 8, 10, 1, 2, 3, 5, 6, 10, 4, 5, 9, 6, 9, 10, 1, 9, 10, 1, 4, 5, 3, 7, 10, 1, 6, 10, 2, 8, 9, 5, 6, 7, 2, 4, 6, 1, 3, 5, 7, 9, 10, 1, 2, 5, 1, 6, 7, 1, 4, 5, 5, 8, 9, 8, 9, 10, 2, 5, 6, 3, 7, 8, 2, 4, 8, 3, 7, 8, 3, 5, 7, 8, 9, 10, 3, 4, 10, 5, 7, 9, 2, 3, 9, 1, 5, 10, 1, 2, 3, 2, 3, 4, 1, 5, 6, 4, 7, 9, 3, 4, 9, 4, 6, 9, 6, 7, 8, 3, 7, 9, 5, 6, 10, 1, 2, 7, 1, 2, 4];
rreq = [|6, 3, 1, 10, 9, 9, 1, 1, 1, 6, 6, 6, 7, 6, 6, 6, 3, 2, 8, 7, 5, 7, 6, 6, 8, 5, 4, 6, 4, 2, 7, 4, 3, 7, 7, 6, 1, 1, 1, 3, 2, 2, 8, 7, 6, 5, 4, 4, 2, 2, 1, 3, 1, 1, 1, 1, 1, 8, 7, 6, 6, 5, 4, 5, 5, 3, 6, 6, 6, 1, 1, 1, 8, 5, 5, 6, 6, 6, 10, 8, 7, 7, 6, 4, 7, 5, 3, 10, 8, 6, 8, 7, 6, 10, 6, 4, 7, 3, 1, 9, 9, 8, 5, 4, 4, 7, 6, 6, 3, 3, 3, 3, 1, 1, 9, 4, 3, 8, 8, 8, 4, 4, 4, 8, 6, 5, 5, 4, 3, 5, 5, 5, 5, 4, 2, 6, 4, 3, 6, 6, 6, 6, 3, 3, 7, 6, 3, 7, 7, 7
 |8, 7, 2, 8, 5, 4, 10, 8, 8, 6, 6, 6, 8, 7, 6, 2, 2, 2, 5, 3, 2, 8, 6, 5, 4, 3, 3, 6, 6, 6, 8, 5, 1, 2, 1, 1, 6, 5, 3, 7, 6, 6, 7, 5, 1, 6, 6, 3, 5, 4, 2, 8, 5, 3, 6, 5, 4, 9, 9, 9, 10, 10, 10, 5, 4, 3, 5, 4, 2, 9, 8, 7, 5, 4, 4, 9, 9, 7, 9, 5, 4, 4, 4, 4, 9, 8, 6, 10, 9, 9, 8, 7, 7, 8, 8, 8, 9, 5, 4, 8, 7, 7, 7, 5, 3, 3, 3, 3, 8, 7, 3, 10, 7, 2, 8, 7, 7, 8, 6, 3, 6, 3, 2, 3, 2, 2, 2, 1, 1, 4, 4, 3, 5, 3, 3, 1, 1, 1, 8, 7, 3, 5, 5, 5, 3, 3, 3, 2, 2, 2
 |9, 4, 3, 8, 6, 4, 9, 9, 8, 4, 4, 4, 5, 3, 3, 9, 6, 6, 4, 4, 4, 3, 2, 2, 4, 4, 2, 8, 6, 4, 5, 4, 4, 6, 5, 5, 9, 9, 9, 9, 7, 7, 7, 5, 5, 1, 1, 1, 8, 7, 7, 7, 4, 2, 10, 10, 10, 7, 7, 6, 8, 7, 4, 9, 6, 4, 7, 5, 4, 6, 5, 4, 7, 5, 5, 7, 6, 4, 4, 4, 3, 2, 1, 1, 9, 7, 7, 7, 4, 4, 6, 6, 4, 9, 5, 3, 2, 2, 2, 9, 5, 5, 3, 3, 3, 3, 2, 1, 7, 4, 4, 6, 3, 1, 10, 4, 2, 8, 5, 4, 8, 8, 8, 4, 4, 2, 3, 2, 2, 6, 4, 2, 7, 6, 6, 7, 4, 3, 5, 3, 2, 7, 6, 5, 5, 4, 1, 8, 7, 6
 |8, 8, 8, 7, 6, 5, 7, 6, 6, 8, 7, 5, 7, 4, 2, 3, 2, 1, 4, 3, 3, 5, 5, 4, 4, 3, 3, 3, 3, 2, 6, 3, 2, 4, 3, 1, 7, 6, 2, 5, 5, 4, 3, 2, 2, 9, 6, 2, 7, 7, 6, 8, 6, 5, 7, 6, 6, 4, 2, 2, 9, 6, 6, 9, 7, 4, 5, 2, 1, 6, 6, 6, 7, 7, 5, 7, 6, 5, 6, 4, 2, 4, 3, 3, 7, 6, 2, 4, 3, 3, 9, 7, 7, 7, 6, 6, 5, 4, 4, 7, 5, 4, 9, 7, 4, 8, 8, 7, 7, 6, 6, 7, 5, 5, 10, 10, 10, 8, 6, 2, 7, 6, 6, 7, 5, 1, 7, 7, 6, 4, 3, 1, 10, 10, 10, 6, 5, 3, 8, 6, 6, 8, 7, 7, 1, 1, 1, 9, 7, 5|];